tsp_instances/TSP50/instance32.tsp
NODE_COORD_SECTION
0 28 36
1 129 192
2 18 76
3 55 8
4 92 140
5 174 161
6 21 130
7 122 141
8 193 61
9 175 185
10 33 20
11 120 142
12 116 147
13 45 85
14 80 149
15 30 141
16 1 106
17 26 177
18 1 162
19 49 94
20 102 147
21 32 164
22 44 190
23 16 160
24 107 171
25 2 153
26 40 74
27 164 59
28 164 63
29 61 64
30 10 140
31 63 153
32 177 189
33 79 73
34 181 138
35 124 192
36 33 30
37 130 6
38 159 91
39 62 110
40 33 21
41 173 108
42 28 14
43 10 199
44 39 69
45 54 86
46 91 51
47 187 86
48 100 131
49 82 117
