tsp_instances/TSP50/instance32.opt.tour
TOUR_SECTION
1
30
47
34
50
40
20
46
14
27
45
3
17
7
16
31
26
19
24
22
18
44
23
32
15
5
49
8
12
13
21
25
36
2
33
10
6
35
42
39
48
9
29
28
38
4
43
11
41
37
-1